\ LP format - for model browsing. Use MPS format to capture full model detail.
Maximize
obj:   x[1] + x[172] + x[33] + x[98] + x[163] + x[68] + x[6] + x[97] + x[108]
   + x[103] + x[76] + x[130] + x[112] + x[49] + x[82] + x[107] + x[147]
   + x[50] + x[137] + x[27] + x[124] + x[167] + x[2] + x[165] + x[8]
   + x[74] + x[44] + x[113] + x[114] + x[52] + x[150] + x[23] + x[24]
   + x[36] + x[106] + x[159] + x[3] + x[43] + x[133] + x[72] + x[11]
   + x[12] + x[45] + x[110] + x[15] + x[145] + x[173] + x[151] + x[154]
   + x[91] + x[122] + x[4] + x[85] + x[136] + x[38] + x[10] + x[119]
   + x[140] + x[142] + x[116] + x[53] + x[89] + x[153] + x[59] + x[125]
   + x[158] + x[69] + x[5] + x[128] + x[65] + x[66] + x[67] + x[170]
   + x[171] + x[162] + x[47] + x[88] + x[63] + x[164] + x[78] + x[80]
   + x[152] + x[132] + x[92] + x[26] + x[7] + x[32] + x[51] + x[22] + x[19]
   + x[120] + x[57] + x[96] + x[131] + x[70] + x[39] + x[168] + x[34]
   + x[25] + x[9] + x[101] + x[73] + x[42] + x[46] + x[105] + x[156]
   + x[35] + x[138] + x[13] + x[79] + x[83] + x[117] + x[100] + x[155]
   + x[40] + x[41] + x[55] + x[14] + x[84] + x[104] + x[29] + x[37] + x[60]
   + x[71] + x[87] + x[99] + x[102] + x[94] + x[81] + x[149] + x[134]
   + x[127] + x[16] + x[148] + x[135] + x[160] + x[175] + x[48] + x[17]
   + x[28] + x[54] + x[93] + x[118] + x[141] + x[174] + x[61] + x[18]
   + x[166] + x[77] + x[123] + x[20] + x[139] + x[115] + x[121] + x[21]
   + x[144] + x[56] + x[90] + x[169] + x[75] + x[58] + x[95] + x[129]
   + x[86] + x[157] + x[161] + x[30] + x[62] + x[31] + x[111] + x[126]
   + x[109] + x[143] + x[64] + x[146]
Subject To
 nod1: 12 x[1] + x[172] + x[33] + x[98] + x[163] + x[68] + x[6] + x[97]
   + x[108] + x[103] + x[76] + x[130] + x[112] + x[49] + x[82] + x[107]
   + x[147] + x[50] + x[137] + x[27] + x[124] + x[167] <= 12
 nod172: x[1] + 7 x[172] + x[98] + x[108] + x[107] + x[137] + x[124]
   + x[12] + x[89] + x[79] + x[41] + x[71] + x[126] <= 7
 nod33: x[1] + 11 x[33] + x[2] + x[52] + x[3] + x[153] + x[158] + x[66]
   + x[80] + x[25] + x[100] + x[60] + x[175] + x[20] + x[144] + x[56]
   <= 11
 nod98: x[1] + x[172] + 9 x[98] + x[163] + x[108] + x[3] + x[12] + x[15]
   + x[158] + x[162] + x[26] + x[40] + x[141] + x[139] + x[90] + x[161]
   <= 9
 nod163: x[1] + x[98] + 10 x[163] + x[142] + x[125] + x[88] + x[35] + x[14]
   + x[37] + x[16] + x[175] + x[17] + x[58] + x[126] + x[143] + x[146]
   <= 10
 nod68: x[1] + 10 x[68] + x[2] + x[142] + x[168] + x[42] + x[40] + x[87]
   + x[127] + x[61] + x[75] + x[58] <= 10
 nod6: x[1] + 11 x[6] + x[82] + x[2] + x[8] + x[36] + x[106] + x[11]
   + x[15] + x[154] + x[4] + x[59] + x[158] + x[5] + x[164] + x[78] + x[80]
   + x[152] + x[132] + x[92] + x[26] <= 11
 nod97: x[1] + 12 x[97] + x[130] + x[82] + x[50] + x[2] + x[113] + x[114]
   + x[159] + x[122] + x[125] + x[69] + x[162] + x[88] + x[80] + x[131]
   + x[42] + x[14] + x[127] + x[30] + x[31] + x[109] <= 12
 nod108: x[1] + x[172] + x[98] + 12 x[108] + x[27] + x[133] + x[122]
   + x[125] + x[170] + x[132] + x[26] + x[25] + x[156] + x[35] + x[104]
   + x[94] + x[81] + x[18] + x[123] + x[115] + x[144] + x[56] + x[157]
   + x[62] <= 12
 nod103: x[1] + 12 x[103] + x[124] + x[167] + x[173] + x[91] + x[38]
   + x[119] + x[47] + x[88] + x[156] + x[104] + x[175] + x[118] + x[18]
   + x[166] + x[115] + x[90] + x[169] + x[58] + x[129] <= 12
 nod76: x[1] + 10 x[76] + x[124] + x[52] + x[11] + x[5] + x[67] + x[164]
   + x[78] + x[152] + x[101] + x[84] + x[149] + x[54] + x[118] + x[141]
   + x[77] + x[144] + x[86] + x[30] + x[62] <= 10
 nod130: x[1] + x[97] + 8 x[130] + x[137] + x[72] + x[85] + x[57] + x[46]
   + x[13] + x[160] + x[115] <= 8
 nod112: x[1] + 11 x[112] + x[167] + x[113] + x[52] + x[106] + x[3] + x[91]
   + x[171] + x[92] + x[120] + x[70] + x[101] + x[14] + x[16] + x[18]
   + x[31] + x[64] <= 11
 nod49: x[1] + 9 x[49] + x[147] + x[52] + x[43] + x[110] + x[119] + x[140]
   + x[53] + x[5] + x[96] + x[37] + x[17] + x[18] + x[77] + x[129] <= 9
 nod82: x[1] + x[6] + x[97] + 6 x[82] + x[11] + x[45] + x[110] + x[32]
   + x[57] + x[58] + x[64] <= 6
 nod107: x[1] + x[172] + 14 x[107] + x[159] + x[12] + x[154] + x[142]
   + x[158] + x[164] + x[132] + x[22] + x[39] + x[105] + x[83] + x[40]
   + x[37] + x[60] + x[149] + x[61] + x[18] + x[166] + x[115] + x[121]
   + x[129] + x[109] <= 14
 nod147: x[1] + x[49] + 13 x[147] + x[137] + x[36] + x[72] + x[11] + x[110]
   + x[136] + x[142] + x[116] + x[53] + x[153] + x[69] + x[65] + x[156]
   + x[29] + x[37] + x[71] + x[48] + x[141] + x[144] + x[109] <= 13
 nod50: x[1] + x[97] + 14 x[50] + x[27] + x[133] + x[72] + x[5] + x[19]
   + x[168] + x[9] + x[101] + x[35] + x[55] + x[29] + x[37] + x[17]
   + x[166] + x[144] + x[75] + x[58] + x[161] + x[30] + x[109] + x[143]
   <= 14
 nod137: x[1] + x[172] + x[130] + x[147] + 10 x[137] + x[27] + x[167]
   + x[24] + x[154] + x[53] + x[67] + x[80] + x[131] + x[40] + x[41]
   + x[84] + x[149] + x[16] + x[121] + x[75] <= 10
 nod27: x[1] + x[108] + x[50] + x[137] + 10 x[27] + x[24] + x[53] + x[89]
   + x[170] + x[162] + x[26] + x[7] + x[96] + x[105] + x[13] + x[87]
   + x[149] + x[93] + x[166] + x[77] + x[157] <= 10
 nod124: x[1] + x[172] + x[103] + x[76] + 10 x[124] + x[136] + x[116]
   + x[63] + x[164] + x[26] + x[120] + x[96] + x[17] + x[123] + x[169]
   + x[111] <= 10
 nod167: x[1] + x[103] + x[112] + x[137] + 12 x[167] + x[114] + x[145]
   + x[151] + x[53] + x[59] + x[69] + x[120] + x[96] + x[168] + x[14]
   + x[16] + x[148] + x[118] + x[123] + x[139] + x[31] + x[126] <= 12
 nod2: x[33] + x[68] + x[6] + x[97] + 11 x[2] + x[165] + x[8] + x[74]
   + x[44] + x[113] + x[114] + x[52] + x[150] + x[23] + x[24] + x[36]
   + x[106] + x[159] <= 11
 nod165: x[2] + 10 x[165] + x[114] + x[159] + x[15] + x[4] + x[125] + x[19]
   + x[35] + x[100] + x[40] + x[37] + x[99] + x[149] + x[160] + x[175]
   + x[48] + x[17] + x[90] + x[75] + x[64] <= 10
 nod8: x[6] + x[2] + 9 x[8] + x[10] + x[116] + x[89] + x[162] + x[26]
   + x[96] + x[131] + x[70] + x[39] + x[168] + x[34] + x[25] <= 9
 nod74: x[2] + 14 x[74] + x[140] + x[59] + x[158] + x[170] + x[47] + x[70]
   + x[34] + x[9] + x[46] + x[156] + x[117] + x[100] + x[84] + x[104]
   + x[94] + x[93] + x[58] + x[157] + x[109] <= 14
 nod44: x[2] + 10 x[44] + x[43] + x[10] + x[142] + x[153] + x[78] + x[9]
   + x[46] + x[104] + x[60] + x[99] + x[135] + x[95] <= 10
 nod113: x[97] + x[112] + x[2] + 11 x[113] + x[151] + x[122] + x[88]
   + x[131] + x[79] + x[104] + x[71] + x[175] + x[166] + x[115] + x[56]
   + x[169] + x[86] <= 11
 nod114: x[97] + x[167] + x[2] + x[165] + 12 x[114] + x[106] + x[133]
   + x[45] + x[142] + x[5] + x[132] + x[168] + x[25] + x[83] + x[17]
   + x[28] + x[93] + x[174] + x[166] + x[157] + x[109] <= 12
 nod52: x[33] + x[76] + x[112] + x[49] + x[2] + 13 x[52] + x[150] + x[23]
   + x[142] + x[153] + x[69] + x[5] + x[66] + x[132] + x[19] + x[131]
   + x[25] + x[14] + x[104] + x[29] + x[102] + x[48] + x[123] + x[86]
   + x[111] <= 13
 nod150: x[2] + x[52] + 10 x[150] + x[145] + x[7] + x[34] + x[117] + x[41]
   + x[55] + x[16] + x[135] + x[90] + x[86] <= 10
 nod23: x[2] + x[52] + 10 x[23] + x[36] + x[4] + x[85] + x[51] + x[22]
   + x[57] + x[34] + x[42] + x[160] + x[118] + x[56] + x[58] + x[129]
   <= 10
 nod24: x[137] + x[27] + x[2] + 12 x[24] + x[140] + x[142] + x[153]
   + x[125] + x[26] + x[13] + x[117] + x[14] + x[71] + x[99] + x[102]
   + x[81] + x[16] + x[135] + x[175] <= 12
 nod36: x[6] + x[147] + x[2] + x[23] + 11 x[36] + x[142] + x[65] + x[63]
   + x[35] + x[14] + x[60] + x[102] + x[81] + x[77] + x[86] <= 11
 nod106: x[6] + x[112] + x[2] + x[114] + 11 x[106] + x[3] + x[72] + x[15]
   + x[145] + x[116] + x[47] + x[78] + x[39] + x[156] + x[83] + x[102]
   + x[144] + x[109] + x[143] <= 11
 nod159: x[97] + x[107] + x[2] + x[165] + 9 x[159] + x[133] + x[154]
   + x[53] + x[125] + x[63] + x[149] + x[17] + x[93] + x[174] + x[139]
   + x[109] <= 9
 nod3: x[33] + x[98] + x[112] + x[106] + 10 x[3] + x[43] + x[133] + x[72]
   + x[11] + x[12] + x[45] + x[110] + x[15] + x[145] + x[173] + x[151]
   + x[154] + x[91] + x[122] <= 10
 nod43: x[49] + x[44] + x[3] + 15 x[43] + x[12] + x[154] + x[91] + x[85]
   + x[59] + x[88] + x[80] + x[152] + x[92] + x[96] + x[34] + x[25] + x[46]
   + x[79] + x[100] + x[155] + x[94] + x[166] + x[58] + x[161] + x[30]
   + x[31] <= 15
 nod133: x[108] + x[50] + x[114] + x[159] + x[3] + 11 x[133] + x[11]
   + x[45] + x[91] + x[59] + x[164] + x[78] + x[131] + x[87] + x[28]
   + x[31] + x[109] <= 11
 nod72: x[130] + x[147] + x[50] + x[106] + x[3] + 12 x[72] + x[11] + x[65]
   + x[67] + x[170] + x[99] + x[169] + x[129] + x[62] + x[111] <= 12
 nod11: x[6] + x[76] + x[82] + x[147] + x[3] + x[133] + x[72] + 10 x[11]
   + x[119] + x[80] + x[132] + x[26] + x[131] + x[73] + x[40] + x[41]
   + x[55] + x[14] + x[84] + x[104] <= 10
 nod12: x[172] + x[98] + x[107] + x[3] + x[43] + 13 x[12] + x[45] + x[15]
   + x[136] + x[125] + x[158] + x[65] + x[132] + x[19] + x[57] + x[96]
   + x[79] + x[83] + x[29] + x[37] + x[60] + x[71] + x[87] <= 13
 nod45: x[82] + x[114] + x[3] + x[133] + x[12] + 12 x[45] + x[110] + x[38]
   + x[142] + x[89] + x[88] + x[92] + x[35] + x[41] + x[14] + x[84]
   + x[104] + x[16] + x[148] + x[160] + x[28] + x[61] + x[20] <= 12
 nod110: x[49] + x[82] + x[147] + x[3] + x[45] + 10 x[110] + x[145]
   + x[116] + x[59] + x[80] + x[92] + x[32] + x[71] + x[134] + x[175]
   + x[18] + x[109] <= 10
 nod15: x[98] + x[6] + x[165] + x[106] + x[3] + x[12] + 11 x[15] + x[151]
   + x[116] + x[53] + x[59] + x[69] + x[78] + x[57] + x[35] + x[117]
   + x[84] + x[99] + x[148] + x[135] + x[160] + x[175] + x[48] <= 11
 nod145: x[167] + x[150] + x[106] + x[3] + x[110] + 8 x[145] + x[151]
   + x[122] + x[140] + x[78] + x[131] + x[39] + x[123] + x[144] <= 8
 nod173: x[103] + x[3] + 12 x[173] + x[128] + x[164] + x[152] + x[7]
   + x[120] + x[105] + x[138] + x[100] + x[29] + x[71] + x[127] + x[48]
   + x[21] + x[144] + x[56] + x[86] + x[64] + x[146] <= 12
 nod151: x[167] + x[113] + x[3] + x[15] + x[145] + 12 x[151] + x[10]
   + x[65] + x[32] + x[19] + x[100] + x[40] + x[55] + x[84] + x[37] + x[77]
   + x[20] + x[161] + x[30] <= 12
 nod154: x[6] + x[107] + x[137] + x[159] + x[3] + x[43] + 12 x[154] + x[4]
   + x[65] + x[170] + x[88] + x[32] + x[131] + x[34] + x[160] + x[129]
   + x[62] + x[146] <= 12
 nod91: x[103] + x[112] + x[3] + x[43] + x[133] + 9 x[91] + x[63] + x[78]
   + x[80] + x[96] + x[73] + x[156] + x[127] + x[93] + x[141] + x[161]
   + x[111] <= 9
 nod122: x[97] + x[108] + x[113] + x[3] + x[145] + 11 x[122] + x[59]
   + x[170] + x[78] + x[132] + x[51] + x[156] + x[35] + x[13] + x[83]
   + x[14] + x[104] + x[71] + x[94] + x[28] + x[174] + x[86] <= 11
 nod4: x[6] + x[165] + x[23] + x[154] + 11 x[4] + x[85] + x[136] + x[38]
   + x[10] + x[119] + x[140] + x[142] + x[116] + x[53] + x[89] + x[153]
   + x[59] + x[125] + x[158] + x[69] <= 11
 nod85: x[130] + x[23] + x[43] + x[4] + 10 x[85] + x[158] + x[5] + x[152]
   + x[51] + x[73] + x[156] + x[84] + x[37] + x[148] + x[166] + x[77]
   + x[56] <= 10
 nod136: x[147] + x[124] + x[12] + x[4] + 11 x[136] + x[53] + x[67] + x[63]
   + x[19] + x[131] + x[70] + x[55] + x[29] + x[71] + x[99] + x[94]
   + x[127] + x[175] + x[28] + x[123] + x[144] <= 11
 nod38: x[103] + x[45] + x[4] + 9 x[38] + x[59] + x[170] + x[34] + x[79]
   + x[83] + x[41] + x[94] + x[28] + x[77] + x[58] + x[161] <= 9
 nod10: x[8] + x[44] + x[151] + x[4] + 10 x[10] + x[35] + x[138] + x[13]
   + x[79] + x[83] + x[117] + x[100] + x[155] <= 10
 nod119: x[103] + x[49] + x[11] + x[4] + 13 x[119] + x[69] + x[19] + x[120]
   + x[25] + x[100] + x[18] + x[20] + x[75] + x[86] + x[157] + x[31]
   + x[126] <= 13
 nod140: x[49] + x[74] + x[24] + x[145] + x[4] + 12 x[140] + x[142]
   + x[162] + x[19] + x[131] + x[105] + x[100] + x[155] + x[134] + x[77]
   + x[56] + x[111] + x[109] <= 12
 nod142: x[163] + x[68] + x[107] + x[147] + x[44] + x[114] + x[52] + x[24]
   + x[36] + x[45] + x[4] + x[140] + 14 x[142] + x[128] + x[39] + x[73]
   + x[46] + x[41] + x[84] + x[134] + x[135] + x[161] + x[111] <= 14
 nod116: x[147] + x[124] + x[8] + x[106] + x[110] + x[15] + x[4]
   + 10 x[116] + x[153] + x[63] + x[78] + x[34] + x[156] + x[117] + x[104]
   + x[160] + x[54] + x[90] + x[31] <= 10
 nod53: x[49] + x[147] + x[137] + x[27] + x[167] + x[159] + x[15] + x[4]
   + x[136] + 11 x[53] + x[59] + x[26] + x[39] + x[42] + x[37] + x[94]
   + x[135] + x[141] + x[144] + x[157] <= 11
 nod89: x[172] + x[27] + x[8] + x[45] + x[4] + 12 x[89] + x[152] + x[92]
   + x[46] + x[79] + x[134] + x[17] + x[118] + x[56] + x[86] + x[62]
   + x[31] <= 12
 nod153: x[33] + x[147] + x[44] + x[52] + x[24] + x[4] + x[116] + 9 x[153]
   + x[69] + x[63] + x[96] + x[104] + x[77] + x[169] + x[111] <= 9
 nod59: x[6] + x[167] + x[74] + x[43] + x[133] + x[110] + x[15] + x[122]
   + x[4] + x[38] + x[53] + 14 x[59] + x[125] + x[132] + x[51] + x[39]
   + x[40] + x[84] + x[29] + x[71] + x[16] + x[139] + x[21] + x[90]
   + x[157] + x[64] <= 14
 nod125: x[163] + x[97] + x[108] + x[165] + x[24] + x[159] + x[12] + x[4]
   + x[59] + 14 x[125] + x[66] + x[47] + x[88] + x[152] + x[46] + x[35]
   + x[155] + x[40] + x[71] + x[87] + x[149] + x[127] + x[16] + x[17]
   + x[28] + x[121] + x[30] + x[143] + x[146] <= 14
 nod158: x[33] + x[98] + x[6] + x[107] + x[74] + x[12] + x[4] + x[85]
   + 13 x[158] + x[5] + x[171] + x[42] + x[35] + x[13] + x[155] + x[87]
   + x[81] + x[127] + x[118] + x[18] + x[169] + x[129] <= 13
 nod69: x[97] + x[147] + x[167] + x[52] + x[15] + x[4] + x[119] + x[153]
   + 12 x[69] + x[128] + x[88] + x[132] + x[51] + x[96] + x[138] + x[13]
   + x[134] + x[127] + x[18] + x[21] + x[75] <= 12
 nod5: x[6] + x[76] + x[49] + x[50] + x[114] + x[52] + x[85] + x[158]
   + 14 x[5] + x[128] + x[65] + x[66] + x[67] + x[170] + x[171] + x[162]
   + x[47] + x[88] + x[63] <= 14
 nod128: x[173] + x[142] + x[69] + x[5] + 12 x[128] + x[57] + x[70] + x[34]
   + x[99] + x[135] + x[118] + x[61] + x[77] + x[115] + x[121] + x[21]
   + x[169] + x[146] <= 12
 nod65: x[147] + x[36] + x[72] + x[12] + x[151] + x[154] + x[5] + 8 x[65]
   + x[120] + x[40] + x[143] <= 8
 nod66: x[33] + x[52] + x[125] + x[5] + 13 x[66] + x[67] + x[19] + x[57]
   + x[34] + x[25] + x[9] + x[117] + x[55] + x[84] + x[99] + x[93] + x[118]
   + x[20] + x[56] + x[161] + x[146] <= 13
 nod67: x[76] + x[137] + x[72] + x[136] + x[5] + x[66] + 9 x[67] + x[88]
   + x[164] + x[22] + x[25] + x[46] + x[100] + x[55] + x[102] + x[149]
   + x[175] + x[123] <= 9
 nod170: x[108] + x[27] + x[74] + x[72] + x[154] + x[122] + x[38] + x[5]
   + 13 x[170] + x[26] + x[7] + x[57] + x[96] + x[35] + x[14] + x[148]
   + x[17] + x[141] + x[18] + x[139] + x[143] <= 13
 nod171: x[112] + x[158] + x[5] + 11 x[171] + x[78] + x[101] + x[117]
   + x[100] + x[60] + x[81] + x[149] + x[175] + x[121] + x[95] + x[157]
   + x[62] <= 11
 nod162: x[98] + x[97] + x[27] + x[8] + x[140] + x[5] + 13 x[162] + x[7]
   + x[22] + x[57] + x[70] + x[105] + x[117] + x[104] + x[16] + x[148]
   + x[118] + x[18] + x[144] + x[129] <= 13
 nod47: x[103] + x[74] + x[106] + x[125] + x[5] + 12 x[47] + x[63] + x[132]
   + x[7] + x[94] + x[134] + x[127] + x[135] + x[118] + x[18] + x[139]
   + x[21] + x[75] + x[31] <= 12
 nod88: x[163] + x[97] + x[103] + x[113] + x[43] + x[45] + x[154] + x[125]
   + x[69] + x[5] + x[67] + 13 x[88] + x[63] + x[120] + x[25] + x[87]
   + x[174] + x[20] + x[139] + x[21] + x[56] + x[90] + x[169] + x[95]
   <= 13
 nod63: x[124] + x[36] + x[159] + x[91] + x[136] + x[116] + x[153] + x[5]
   + x[47] + x[88] + 11 x[63] + x[80] + x[22] + x[73] + x[35] + x[84]
   + x[37] + x[17] + x[77] + x[115] + x[21] + x[169] + x[58] <= 11
 nod164: x[6] + x[76] + x[107] + x[124] + x[133] + x[173] + x[67]
   + 11 x[164] + x[19] + x[101] + x[40] + x[17] + x[93] + x[18] + x[126]
   <= 11
 nod78: x[6] + x[76] + x[44] + x[106] + x[133] + x[15] + x[145] + x[91]
   + x[122] + x[116] + x[171] + 11 x[78] + x[26] + x[29] + x[71] + x[102]
   + x[54] + x[118] + x[18] + x[123] + x[75] <= 11
 nod80: x[33] + x[6] + x[97] + x[137] + x[43] + x[11] + x[110] + x[91]
   + x[63] + 14 x[80] + x[168] + x[34] + x[156] + x[40] + x[14] + x[84]
   + x[29] + x[37] + x[60] + x[20] + x[144] + x[90] + x[62] + x[31] <= 14
 nod152: x[6] + x[76] + x[43] + x[173] + x[85] + x[89] + x[125] + 15 x[152]
   + x[120] + x[25] + x[46] + x[138] + x[14] + x[99] + x[48] + x[54]
   + x[93] + x[174] + x[77] + x[115] + x[95] + x[129] + x[30] + x[31]
   <= 15
 nod132: x[6] + x[108] + x[107] + x[114] + x[52] + x[11] + x[12] + x[122]
   + x[59] + x[69] + x[47] + 12 x[132] + x[120] + x[46] + x[127] + x[48]
   + x[54] + x[18] + x[20] + x[109] <= 12
 nod92: x[6] + x[112] + x[43] + x[45] + x[110] + x[89] + 9 x[92] + x[34]
   + x[16] + x[141] + x[139] + x[144] + x[169] + x[30] <= 9
 nod26: x[98] + x[6] + x[108] + x[27] + x[124] + x[8] + x[24] + x[11]
   + x[53] + x[170] + x[78] + 12 x[26] + x[25] + x[83] + x[40] + x[41]
   + x[48] + x[93] + x[139] + x[86] <= 12
 nod7: x[27] + x[150] + x[173] + x[170] + x[162] + x[47] + 7 x[7] + x[32]
   + x[51] + x[22] + x[19] + x[120] + x[57] <= 7
 nod32: x[82] + x[110] + x[151] + x[154] + x[7] + 11 x[32] + x[19] + x[57]
   + x[9] + x[117] + x[149] + x[134] + x[148] + x[17] + x[123] + x[129]
   + x[111] <= 11
 nod51: x[23] + x[122] + x[85] + x[59] + x[69] + x[7] + 9 x[51] + x[83]
   + x[155] + x[60] + x[71] + x[81] + x[169] + x[75] <= 9
 nod22: x[107] + x[23] + x[67] + x[162] + x[63] + x[7] + 12 x[22] + x[19]
   + x[46] + x[14] + x[84] + x[94] + x[54] + x[118] + x[123] + x[56]
   + x[169] + x[75] + x[58] + x[95] <= 12
 nod19: x[50] + x[165] + x[52] + x[12] + x[151] + x[136] + x[119] + x[140]
   + x[66] + x[164] + x[7] + x[32] + x[22] + 13 x[19] + x[96] + x[131]
   + x[79] + x[127] + x[135] + x[48] + x[61] + x[77] <= 13
 nod120: x[112] + x[124] + x[167] + x[173] + x[119] + x[65] + x[88]
   + x[152] + x[132] + x[7] + 11 x[120] + x[57] + x[131] + x[70] + x[156]
   + x[138] + x[118] + x[61] + x[90] <= 11
 nod57: x[130] + x[82] + x[23] + x[12] + x[15] + x[128] + x[66] + x[170]
   + x[162] + x[7] + x[32] + x[120] + 14 x[57] + x[13] + x[79] + x[100]
   + x[155] + x[104] + x[99] + x[94] + x[121] + x[169] + x[58] + x[111]
   <= 14
 nod96: x[49] + x[27] + x[124] + x[167] + x[8] + x[43] + x[12] + x[91]
   + x[153] + x[69] + x[170] + x[19] + 13 x[96] + x[83] + x[100] + x[94]
   + x[127] + x[109] + x[143] <= 13
 nod131: x[97] + x[137] + x[8] + x[113] + x[52] + x[133] + x[11] + x[145]
   + x[154] + x[136] + x[140] + x[19] + x[120] + 13 x[131] + x[70] + x[25]
   + x[13] + x[41] + x[55] + x[81] + x[174] + x[77] + x[121] + x[144]
   + x[157] <= 13
 nod70: x[112] + x[8] + x[74] + x[136] + x[128] + x[162] + x[120] + x[131]
   + 10 x[70] + x[34] + x[60] + x[17] + x[118] + x[174] + x[166] + x[86]
   + x[64] <= 10
 nod39: x[107] + x[8] + x[106] + x[145] + x[142] + x[53] + x[59] + 10 x[39]
   + x[168] + x[100] + x[55] + x[60] + x[148] + x[93] + x[118] + x[174]
   <= 10
 nod168: x[68] + x[50] + x[167] + x[8] + x[114] + x[80] + x[39] + 7 x[168]
   + x[9] + x[155] + x[30] + x[143] <= 7
 nod34: x[8] + x[74] + x[150] + x[23] + x[43] + x[154] + x[38] + x[116]
   + x[128] + x[66] + x[80] + x[92] + x[70] + 11 x[34] + x[83] + x[139]
   + x[56] + x[111] <= 11
 nod25: x[33] + x[108] + x[8] + x[114] + x[52] + x[43] + x[119] + x[66]
   + x[67] + x[88] + x[152] + x[26] + x[131] + 9 x[25] + x[79] + x[55]
   + x[37] <= 9
 nod9: x[50] + x[74] + x[44] + x[66] + x[32] + x[168] + 8 x[9] + x[101]
   + x[73] + x[42] + x[46] + x[105] + x[156] <= 8
 nod101: x[76] + x[112] + x[50] + x[171] + x[164] + x[9] + 8 x[101] + x[73]
   + x[156] + x[160] + x[54] + x[20] + x[21] + x[144] + x[109] <= 8
 nod73: x[11] + x[91] + x[85] + x[142] + x[63] + x[9] + x[101] + 12 x[73]
   + x[84] + x[104] + x[87] + x[94] + x[149] + x[16] + x[160] + x[118]
   + x[141] + x[123] + x[115] + x[56] + x[129] + x[64] <= 12
 nod42: x[68] + x[97] + x[23] + x[53] + x[158] + x[9] + 12 x[42] + x[156]
   + x[35] + x[79] + x[117] + x[71] + x[16] + x[174] + x[86] <= 12
 nod46: x[130] + x[74] + x[44] + x[43] + x[142] + x[89] + x[125] + x[67]
   + x[152] + x[132] + x[22] + x[9] + 11 x[46] + x[148] + x[135] + x[169]
   + x[129] <= 11
 nod105: x[107] + x[27] + x[173] + x[140] + x[162] + x[9] + 11 x[105]
   + x[35] + x[138] + x[55] + x[87] + x[17] + x[121] + x[169] + x[58]
   + x[62] + x[31] + x[143] <= 11
 nod156: x[108] + x[103] + x[147] + x[74] + x[106] + x[91] + x[122] + x[85]
   + x[116] + x[80] + x[120] + x[9] + x[101] + x[42] + 14 x[156] + x[55]
   + x[87] + x[149] + x[61] + x[139] + x[143] <= 14
 nod35: x[163] + x[108] + x[50] + x[165] + x[36] + x[45] + x[15] + x[122]
   + x[10] + x[125] + x[158] + x[170] + x[63] + x[42] + x[105] + 12 x[35]
   + x[40] + x[37] + x[148] + x[28] + x[93] + x[141] + x[123] + x[58]
   + x[126] <= 12
 nod138: x[173] + x[10] + x[69] + x[152] + x[120] + x[105] + 8 x[138]
   + x[155] + x[84] + x[61] + x[123] + x[169] + x[126] <= 8
 nod13: x[130] + x[27] + x[24] + x[122] + x[10] + x[158] + x[69] + x[57]
   + x[131] + 9 x[13] + x[41] + x[14] + x[99] + x[102] + x[94] + x[81]
   + x[149] + x[134] + x[127] <= 9
 nod79: x[172] + x[113] + x[43] + x[12] + x[38] + x[10] + x[89] + x[19]
   + x[57] + x[25] + x[42] + 13 x[79] + x[55] + x[37] + x[81] + x[115]
   + x[90] + x[31] + x[143] <= 13
 nod83: x[107] + x[114] + x[106] + x[12] + x[122] + x[38] + x[10] + x[26]
   + x[51] + x[96] + x[34] + 8 x[83] + x[135] <= 8
 nod117: x[74] + x[150] + x[24] + x[15] + x[10] + x[116] + x[66] + x[171]
   + x[162] + x[32] + x[42] + 12 x[117] + x[94] + x[149] + x[18] + x[75]
   + x[31] <= 12
 nod100: x[33] + x[165] + x[74] + x[43] + x[173] + x[151] + x[10] + x[119]
   + x[140] + x[67] + x[171] + x[57] + x[96] + x[39] + 13 x[100] + x[41]
   + x[84] + x[99] + x[81] + x[144] + x[169] + x[157] <= 13
 nod155: x[43] + x[10] + x[140] + x[125] + x[158] + x[51] + x[57] + x[168]
   + x[138] + 10 x[155] + x[54] + x[20] + x[75] + x[143] <= 10
 nod40: x[98] + x[68] + x[107] + x[137] + x[165] + x[11] + x[151] + x[59]
   + x[125] + x[65] + x[164] + x[80] + x[26] + x[35] + 12 x[40] + x[29]
   + x[148] + x[118] + x[139] + x[56] + x[31] <= 12
 nod41: x[172] + x[137] + x[150] + x[11] + x[45] + x[38] + x[142] + x[26]
   + x[131] + x[13] + x[100] + 11 x[41] + x[55] + x[94] + x[175] + x[144]
   + x[95] + x[62] + x[109] <= 11
 nod55: x[50] + x[150] + x[11] + x[151] + x[136] + x[66] + x[67] + x[131]
   + x[39] + x[25] + x[105] + x[156] + x[79] + x[41] + 13 x[55] + x[29]
   + x[60] + x[16] + x[48] + x[17] + x[28] + x[118] + x[21] + x[157] <= 13
 nod14: x[163] + x[97] + x[112] + x[167] + x[52] + x[24] + x[36] + x[11]
   + x[45] + x[122] + x[170] + x[80] + x[152] + x[22] + x[13] + 11 x[14]
   + x[127] + x[16] + x[148] <= 11
 nod84: x[76] + x[137] + x[74] + x[11] + x[45] + x[15] + x[151] + x[85]
   + x[142] + x[59] + x[66] + x[63] + x[80] + x[22] + x[73] + x[138]
   + x[100] + 13 x[84] + x[94] + x[16] + x[160] + x[166] + x[115] + x[121]
   + x[90] <= 13
 nod104: x[108] + x[103] + x[74] + x[44] + x[113] + x[52] + x[11] + x[45]
   + x[122] + x[116] + x[153] + x[162] + x[57] + x[73] + 11 x[104] + x[87]
   + x[102] + x[115] + x[129] + x[86] + x[62] <= 11
 nod29: x[147] + x[50] + x[52] + x[12] + x[173] + x[136] + x[59] + x[78]
   + x[80] + x[40] + x[55] + 11 x[29] + x[149] + x[174] + x[20] + x[21]
   + x[161] <= 11
 nod37: x[163] + x[49] + x[107] + x[147] + x[50] + x[165] + x[12] + x[151]
   + x[85] + x[53] + x[63] + x[80] + x[25] + x[35] + x[79] + 10 x[37]
   + x[149] + x[127] + x[175] + x[161] <= 10
 nod60: x[33] + x[107] + x[44] + x[36] + x[12] + x[171] + x[80] + x[51]
   + x[70] + x[39] + x[55] + 10 x[60] + x[126] + x[146] <= 10
 nod71: x[172] + x[147] + x[113] + x[24] + x[12] + x[110] + x[173] + x[122]
   + x[136] + x[59] + x[125] + x[78] + x[51] + x[42] + 9 x[71] + x[18]
   + x[21] <= 9
 nod87: x[68] + x[27] + x[133] + x[12] + x[125] + x[158] + x[88] + x[73]
   + x[105] + x[156] + x[104] + 10 x[87] + x[16] + x[135] + x[160] + x[58]
   + x[129] + x[109] <= 10
 nod99: x[165] + x[44] + x[24] + x[72] + x[15] + x[136] + x[128] + x[66]
   + x[152] + x[57] + x[13] + x[100] + 10 x[99] + x[102] + x[175] + x[54]
   + x[166] <= 10
 nod102: x[52] + x[24] + x[36] + x[106] + x[67] + x[78] + x[13] + x[104]
   + x[99] + 8 x[102] + x[127] + x[17] + x[174] + x[121] + x[75] <= 8
 nod94: x[108] + x[74] + x[43] + x[122] + x[136] + x[38] + x[53] + x[47]
   + x[22] + x[57] + x[96] + x[73] + x[13] + x[117] + x[41] + x[84]
   + 9 x[94] + x[75] <= 9
 nod81: x[108] + x[24] + x[36] + x[158] + x[171] + x[51] + x[131] + x[13]
   + x[79] + x[100] + 10 x[81] + x[48] + x[17] + x[115] <= 10
 nod149: x[76] + x[107] + x[137] + x[27] + x[165] + x[159] + x[125] + x[67]
   + x[171] + x[32] + x[73] + x[156] + x[13] + x[117] + x[29] + x[37]
   + 13 x[149] + x[175] + x[166] + x[121] + x[169] + x[30] + x[126]
   + x[109] <= 13
 nod134: x[110] + x[140] + x[142] + x[89] + x[69] + x[47] + x[32] + x[13]
   + 8 x[134] + x[118] + x[141] + x[77] + x[20] <= 8
 nod127: x[68] + x[97] + x[173] + x[91] + x[136] + x[125] + x[158] + x[69]
   + x[47] + x[132] + x[19] + x[96] + x[13] + x[14] + x[37] + x[102]
   + 12 x[127] + x[123] + x[86] + x[31] <= 12
 nod16: x[163] + x[112] + x[137] + x[167] + x[150] + x[24] + x[45] + x[59]
   + x[125] + x[162] + x[92] + x[73] + x[42] + x[55] + x[14] + x[84]
   + x[87] + 12 x[16] + x[17] + x[28] + x[54] + x[93] + x[118] <= 12
 nod148: x[167] + x[45] + x[15] + x[85] + x[170] + x[162] + x[32] + x[39]
   + x[46] + x[35] + x[40] + x[14] + 12 x[148] + x[90] + x[161] <= 12
 nod135: x[44] + x[150] + x[24] + x[15] + x[142] + x[53] + x[128] + x[47]
   + x[19] + x[46] + x[83] + x[87] + 10 x[135] + x[75] + x[129] + x[109]
   <= 10
 nod160: x[130] + x[165] + x[23] + x[45] + x[15] + x[154] + x[116] + x[101]
   + x[73] + x[84] + x[87] + 9 x[160] + x[123] <= 9
 nod175: x[33] + x[163] + x[103] + x[165] + x[113] + x[24] + x[110] + x[15]
   + x[136] + x[67] + x[171] + x[41] + x[37] + x[99] + x[149] + 11 x[175]
   + x[48] + x[61] + x[123] + x[143] <= 11
 nod48: x[147] + x[165] + x[52] + x[15] + x[173] + x[152] + x[132] + x[26]
   + x[19] + x[55] + x[81] + x[175] + 9 x[48] + x[90] <= 9
 nod17: x[163] + x[49] + x[50] + x[124] + x[165] + x[114] + x[159] + x[89]
   + x[125] + x[170] + x[63] + x[164] + x[32] + x[70] + x[105] + x[55]
   + x[102] + x[81] + x[16] + 14 x[17] + x[118] + x[141] + x[174] + x[61]
   <= 14
 nod28: x[114] + x[133] + x[45] + x[122] + x[136] + x[38] + x[125] + x[35]
   + x[55] + x[16] + 8 x[28] + x[61] + x[166] + x[56] <= 8
 nod54: x[76] + x[116] + x[78] + x[152] + x[132] + x[22] + x[101] + x[155]
   + x[99] + x[16] + 10 x[54] + x[77] + x[31] + x[111] + x[143] + x[64]
   <= 10
 nod93: x[27] + x[74] + x[114] + x[159] + x[91] + x[66] + x[164] + x[152]
   + x[26] + x[39] + x[35] + x[16] + 12 x[93] + x[141] + x[166] + x[77]
   + x[75] <= 12
 nod118: x[103] + x[76] + x[167] + x[23] + x[89] + x[158] + x[128] + x[66]
   + x[162] + x[47] + x[78] + x[22] + x[120] + x[70] + x[39] + x[73]
   + x[40] + x[55] + x[134] + x[16] + x[17] + 16 x[118] + x[75] + x[157]
   + x[111] <= 16
 nod141: x[98] + x[76] + x[147] + x[91] + x[53] + x[170] + x[92] + x[73]
   + x[35] + x[134] + x[17] + x[93] + 11 x[141] + x[61] + x[123] + x[58]
   + x[95] <= 11
 nod174: x[114] + x[159] + x[122] + x[88] + x[152] + x[131] + x[70] + x[39]
   + x[42] + x[29] + x[102] + x[17] + 10 x[174] + x[166] <= 10
 nod61: x[68] + x[107] + x[45] + x[128] + x[19] + x[120] + x[156] + x[138]
   + x[175] + x[17] + x[28] + x[141] + 10 x[61] + x[21] + x[90] + x[143]
   <= 10
 nod18: x[108] + x[103] + x[112] + x[49] + x[107] + x[110] + x[119]
   + x[158] + x[69] + x[170] + x[162] + x[47] + x[164] + x[78] + x[132]
   + x[117] + x[71] + 11 x[18] + x[166] + x[77] + x[123] <= 11
 nod166: x[103] + x[107] + x[50] + x[27] + x[113] + x[114] + x[43] + x[85]
   + x[70] + x[84] + x[99] + x[149] + x[28] + x[93] + x[174] + x[18]
   + 11 x[166] + x[126] <= 11
 nod77: x[76] + x[49] + x[27] + x[36] + x[151] + x[85] + x[38] + x[140]
   + x[153] + x[128] + x[63] + x[152] + x[19] + x[131] + x[134] + x[54]
   + x[93] + x[18] + 13 x[77] + x[123] + x[144] + x[56] + x[157] + x[31]
   <= 13
 nod123: x[108] + x[124] + x[167] + x[52] + x[145] + x[136] + x[67] + x[78]
   + x[32] + x[22] + x[73] + x[35] + x[138] + x[127] + x[160] + x[175]
   + x[141] + x[18] + x[77] + 13 x[123] + x[157] <= 13
 nod20: x[33] + x[45] + x[151] + x[119] + x[66] + x[88] + x[80] + x[132]
   + x[101] + x[155] + x[29] + x[134] + 12 x[20] + x[139] + x[115] + x[121]
   <= 12
 nod139: x[98] + x[167] + x[159] + x[59] + x[170] + x[47] + x[88] + x[92]
   + x[26] + x[34] + x[156] + x[40] + x[20] + 9 x[139] + x[58] <= 9
 nod115: x[108] + x[103] + x[130] + x[107] + x[113] + x[128] + x[63]
   + x[152] + x[73] + x[79] + x[84] + x[104] + x[81] + x[20] + 11 x[115]
   + x[56] + x[75] + x[31] + x[126] <= 11
 nod121: x[107] + x[137] + x[125] + x[128] + x[171] + x[57] + x[131]
   + x[105] + x[84] + x[102] + x[149] + x[20] + 9 x[121] + x[75] + x[64]
   <= 9
 nod21: x[173] + x[59] + x[69] + x[128] + x[47] + x[88] + x[63] + x[101]
   + x[55] + x[29] + x[71] + x[61] + 7 x[21] + x[144] + x[56] + x[90] <= 7
 nod144: x[33] + x[108] + x[76] + x[147] + x[50] + x[106] + x[145] + x[173]
   + x[136] + x[53] + x[162] + x[80] + x[92] + x[131] + x[101] + x[100]
   + x[41] + x[77] + x[21] + 12 x[144] + x[56] + x[75] + x[86] + x[157]
   + x[143] <= 12
 nod56: x[33] + x[108] + x[113] + x[23] + x[173] + x[85] + x[140] + x[89]
   + x[66] + x[88] + x[22] + x[34] + x[73] + x[40] + x[28] + x[77] + x[115]
   + x[21] + x[144] + 12 x[56] + x[64] <= 12
 nod90: x[98] + x[103] + x[165] + x[150] + x[116] + x[59] + x[88] + x[80]
   + x[120] + x[79] + x[84] + x[148] + x[48] + x[61] + x[21] + 10 x[90]
   <= 10
 nod169: x[103] + x[124] + x[113] + x[72] + x[153] + x[158] + x[128]
   + x[88] + x[63] + x[92] + x[51] + x[22] + x[57] + x[46] + x[105]
   + x[138] + x[100] + x[149] + 12 x[169] <= 12
 nod75: x[68] + x[50] + x[137] + x[165] + x[119] + x[69] + x[47] + x[78]
   + x[51] + x[22] + x[117] + x[155] + x[102] + x[94] + x[135] + x[93]
   + x[118] + x[115] + x[121] + x[144] + 12 x[75] + x[64] <= 12
 nod58: x[163] + x[68] + x[103] + x[82] + x[50] + x[74] + x[23] + x[43]
   + x[38] + x[63] + x[22] + x[57] + x[105] + x[35] + x[87] + x[141]
   + x[139] + 12 x[58] + x[129] <= 12
 nod95: x[44] + x[171] + x[88] + x[152] + x[22] + x[41] + x[141] + 7 x[95]
   <= 7
 nod129: x[103] + x[49] + x[107] + x[23] + x[72] + x[154] + x[158] + x[162]
   + x[152] + x[32] + x[73] + x[46] + x[104] + x[87] + x[135] + x[58]
   + 11 x[129] + x[146] <= 11
 nod86: x[76] + x[113] + x[52] + x[150] + x[36] + x[173] + x[122] + x[119]
   + x[89] + x[26] + x[70] + x[42] + x[104] + x[127] + x[144] + 10 x[86]
   <= 10
 nod157: x[108] + x[27] + x[74] + x[114] + x[119] + x[53] + x[59] + x[171]
   + x[131] + x[100] + x[55] + x[118] + x[77] + x[123] + x[144] + 8 x[157]
   <= 8
 nod161: x[98] + x[50] + x[43] + x[151] + x[91] + x[38] + x[142] + x[66]
   + x[29] + x[37] + x[148] + 9 x[161] + x[109] <= 9
 nod30: x[97] + x[76] + x[50] + x[43] + x[151] + x[125] + x[152] + x[92]
   + x[168] + x[149] + 7 x[30] + x[62] <= 7
 nod62: x[108] + x[76] + x[72] + x[154] + x[89] + x[171] + x[80] + x[105]
   + x[41] + x[104] + x[30] + 10 x[62] + x[126] <= 10
 nod31: x[97] + x[112] + x[167] + x[43] + x[133] + x[119] + x[116] + x[89]
   + x[47] + x[80] + x[152] + x[105] + x[79] + x[117] + x[40] + x[127]
   + x[54] + x[77] + x[115] + 12 x[31] <= 12
 nod111: x[124] + x[52] + x[72] + x[91] + x[140] + x[142] + x[153] + x[32]
   + x[57] + x[34] + x[54] + x[118] + 9 x[111] <= 9
 nod126: x[172] + x[163] + x[167] + x[119] + x[164] + x[35] + x[138]
   + x[60] + x[149] + x[166] + x[115] + x[62] + 10 x[126] <= 10
 nod109: x[97] + x[107] + x[147] + x[50] + x[74] + x[114] + x[106] + x[159]
   + x[133] + x[110] + x[140] + x[132] + x[96] + x[101] + x[41] + x[87]
   + x[149] + x[135] + x[161] + 12 x[109] <= 12
 nod143: x[163] + x[50] + x[106] + x[125] + x[65] + x[170] + x[96] + x[168]
   + x[105] + x[156] + x[79] + x[155] + x[175] + x[54] + x[61] + x[144]
   + 10 x[143] <= 10
 nod64: x[112] + x[82] + x[165] + x[173] + x[59] + x[70] + x[73] + x[54]
   + x[121] + x[56] + x[75] + 8 x[64] <= 8
 nod146: x[163] + x[173] + x[154] + x[125] + x[128] + x[66] + x[60]
   + x[129] + 5 x[146] <= 5
Bounds
Binaries
 x[1] x[172] x[33] x[98] x[163] x[68] x[6] x[97] x[108] x[103] x[76] x[130]
 x[112] x[49] x[82] x[107] x[147] x[50] x[137] x[27] x[124] x[167] x[2]
 x[165] x[8] x[74] x[44] x[113] x[114] x[52] x[150] x[23] x[24] x[36]
 x[106] x[159] x[3] x[43] x[133] x[72] x[11] x[12] x[45] x[110] x[15]
 x[145] x[173] x[151] x[154] x[91] x[122] x[4] x[85] x[136] x[38] x[10]
 x[119] x[140] x[142] x[116] x[53] x[89] x[153] x[59] x[125] x[158] x[69]
 x[5] x[128] x[65] x[66] x[67] x[170] x[171] x[162] x[47] x[88] x[63]
 x[164] x[78] x[80] x[152] x[132] x[92] x[26] x[7] x[32] x[51] x[22] x[19]
 x[120] x[57] x[96] x[131] x[70] x[39] x[168] x[34] x[25] x[9] x[101] x[73]
 x[42] x[46] x[105] x[156] x[35] x[138] x[13] x[79] x[83] x[117] x[100]
 x[155] x[40] x[41] x[55] x[14] x[84] x[104] x[29] x[37] x[60] x[71] x[87]
 x[99] x[102] x[94] x[81] x[149] x[134] x[127] x[16] x[148] x[135] x[160]
 x[175] x[48] x[17] x[28] x[54] x[93] x[118] x[141] x[174] x[61] x[18]
 x[166] x[77] x[123] x[20] x[139] x[115] x[121] x[21] x[144] x[56] x[90]
 x[169] x[75] x[58] x[95] x[129] x[86] x[157] x[161] x[30] x[62] x[31]
 x[111] x[126] x[109] x[143] x[64] x[146]
End
